p cnf 7230 16
-4918 -4926 -5323 0
4918 -5324 0
5323 5324 0
5321 5322 0
4916 -5322 0
-4916 -5321 0
5319 5320 0
4914 -5320 0
-4914 -5319 0
5317 5318 0
4912 -5318 0
-4912 -5317 0
4926 -5324 0
5315 5316 0
4928 -5326 0
4920 -5326 0
